sat
(= |goto_symex::&92;guard#1| true)
(= |goto_symex::&92;guard#2| true)
(= |goto_symex::&92;guard#3| true)
(= |goto_symex::&92;guard#4| false)
(= |nondet_symex::nondet0| true)
(= |nondet_symex::nondet2| false)
(= |nondet_symex::nondet5| false)
(= |nondet_symex::nondet6| false)
(= |nondet_symex::nondet7| false)
(= |memory_model::choice_rf_1_22_0_11_T_0| false)
(= |memory_model::choice_rf_1_22_2_34_T_1| true)
(= |memory_model::choice_rf_1_22_3_39_T_2| false)
(= |memory_model::choice_rf_2_33_0_11_T_3| true)
(= |memory_model::choice_rf_2_33_1_23_T_4| false)
(= |memory_model::choice_rf_2_33_3_39_T_5| false)
(= |memory_model::choice_rf_3_38_0_11_T_6| false)
(= |memory_model::choice_rf_3_38_1_23_T_7| true)
(= |memory_model::choice_rf_3_38_2_34_T_8| false)
(= |memory_model::choice_rf_0_60_0_9_T_9| false)
(= |memory_model::choice_rf_0_60_0_56_T_10| true)
(= |memory_model::choice_rf_0_65_0_9_T_11| false)
(= |memory_model::choice_rf_0_65_0_56_T_12| false)
(= |memory_model::choice_rf_0_65_0_61_T_13| true)
(= |memory_model::choice_rf_0_72_0_37_F_14| false)
(= |memory_model::choice_rf_0_72_1_12_F_15| true)
(= |memory_model::choice_rf_0_72_2_30_F_16| false)
(= |memory_model::choice_rf_0_72_3_16_F_17| false)
(= |memory_model::choice_rf_0_72_3_35_F_18| false)
(= |memory_model::choice_rf_1_7_0_37_F_19| false)
(= |memory_model::choice_rf_1_7_0_83_F_20| false)
(= |memory_model::choice_rf_1_7_2_30_F_21| true)
(= |memory_model::choice_rf_1_7_3_16_F_22| false)
(= |memory_model::choice_rf_1_7_3_35_F_23| false)
(= |memory_model::choice_rf_2_19_0_37_F_24| false)
(= |memory_model::choice_rf_2_19_0_83_F_25| false)
(= |memory_model::choice_rf_2_19_1_12_F_26| false)
(= |memory_model::choice_rf_2_19_3_16_F_27| false)
(= |memory_model::choice_rf_2_19_3_35_F_28| true)
(= |memory_model::choice_rf_3_6_0_37_F_29| true)
(= |memory_model::choice_rf_3_6_0_83_F_30| false)
(= |memory_model::choice_rf_3_6_1_12_F_31| false)
(= |memory_model::choice_rf_3_6_2_30_F_32| false)
(= |memory_model::choice_rf_3_24_0_37_F_33| false)
(= |memory_model::choice_rf_3_24_0_83_F_34| false)
(= |memory_model::choice_rf_3_24_1_12_F_35| false)
(= |memory_model::choice_rf_3_24_2_30_F_36| false)
(= |memory_model::choice_rf_3_24_3_16_F_37| true)
(= |memory_model::choice_rf_0_69_0_12_F_38| false)
(= |memory_model::choice_rf_0_69_1_21_F_39| true)
(= |memory_model::choice_rf_0_69_2_32_F_40| false)
(= |memory_model::choice_rf_0_69_3_37_F_41| false)
(= |memory_model::choice_rf_1_20_0_12_F_42| false)
(= |memory_model::choice_rf_1_20_2_32_F_43| false)
(= |memory_model::choice_rf_1_20_3_37_F_44| true)
(= |memory_model::choice_rf_2_31_0_12_F_45| true)
(= |memory_model::choice_rf_2_31_1_21_F_46| false)
(= |memory_model::choice_rf_2_31_3_37_F_47| false)
(= |memory_model::choice_rf_3_36_0_12_F_48| false)
(= |memory_model::choice_rf_3_36_1_21_F_49| false)
(= |memory_model::choice_rf_3_36_2_32_F_50| true)
(= |memory_model::choice_rf_0_86_0_13_F_51| false)
(= |memory_model::choice_rf_0_86_1_8_F_52| true)
(= |memory_model::choice_rf_0_87_0_14_F_53| false)
(= |memory_model::choice_rf_0_87_3_7_F_54| false)
(= |memory_model::choice_rf_0_89_0_25_F_55| false)
(= |memory_model::choice_rf_0_89_3_21_F_56| true)
(= |memory_model::choice_rf_0_85_0_31_F_57| false)
(= |memory_model::choice_rf_0_85_3_23_F_58| true)
(= |memory_model::choice_rf_0_71_0_32_F_59| false)
(= |memory_model::choice_rf_0_71_0_70_F_60| true)
(= |memory_model::choice_rf_0_84_0_33_F_61| false)
(= |memory_model::choice_rf_0_94_0_33_F_62| false)
(= |memory_model::choice_rf_0_94_0_91_F_63| true)
(= |memory_model::choice_rf_0_95_0_33_F_64| false)
(= |memory_model::choice_rf_0_95_0_91_F_65| true)
(= |memory_model::choice_rf_0_77_0_40_F_66| true)
(= |memory_model::choice_rf_2_6_0_40_F_67| true)
(= |memory_model::choice_rf_2_6_0_80_F_68| false)
(= |memory_model::choice_rf_1_5_0_41_F_69| true)
(= |memory_model::choice_rf_2_3_0_41_F_70| true)
(= |memory_model::choice_rf_2_3_1_14_F_71| false)
(= |memory_model::choice_rf_2_2_0_42_F_72| true)
(= |memory_model::choice_rf_2_24_0_42_F_73| false)
(= |memory_model::choice_rf_2_24_2_10_F_74| true)
(= |memory_model::choice_rf_2_4_0_43_F_75| true)
(= |memory_model::choice_rf_2_4_3_20_F_76| false)
(= |memory_model::choice_rf_2_4_3_32_F_77| false)
(= |memory_model::choice_rf_3_3_0_43_F_78| true)
(= |memory_model::choice_rf_3_28_0_43_F_79| false)
(= |memory_model::choice_rf_3_28_3_20_F_80| true)
(= |memory_model::choice_rf_0_76_0_44_F_81| false)
(= |memory_model::choice_rf_0_76_2_13_F_82| true)
(= |memory_model::choice_rf_2_5_0_44_F_83| false)
(= |memory_model::choice_rf_2_5_0_79_F_84| false)
(= |memory_model::choice_rf_1_2_0_45_F_85| false)
(= |memory_model::choice_rf_1_2_2_12_F_86| true)
(= |memory_model::choice_rf_2_1_0_45_F_87| false)
(= |memory_model::choice_rf_2_1_1_9_F_88| false)
(= |memory_model::choice_rf_2_0_0_46_F_89| false)
(= |memory_model::choice_rf_2_21_0_46_F_90| false)
(= |memory_model::choice_rf_2_21_2_11_F_91| true)
(= |memory_model::choice_rf_2_7_0_47_F_92| false)
(= |memory_model::choice_rf_2_7_3_19_F_93| false)
(= |memory_model::choice_rf_2_7_3_31_F_94| false)
(= |memory_model::choice_rf_3_4_0_47_F_95| false)
(= |memory_model::choice_rf_3_4_2_14_F_96| true)
(= |memory_model::choice_rf_3_29_0_47_F_97| false)
(= |memory_model::choice_rf_3_29_2_14_F_98| false)
(= |memory_model::choice_rf_3_29_3_19_F_99| true)
(= |memory_model::choice_rf_0_75_0_50_F_100| false)
(= |memory_model::choice_rf_0_75_1_17_F_101| true)
(= |memory_model::choice_rf_0_75_2_17_F_102| false)
(= |memory_model::choice_rf_0_75_3_11_F_103| false)
(= |memory_model::choice_rf_1_3_0_50_F_104| false)
(= |memory_model::choice_rf_1_3_2_17_F_105| false)
(= |memory_model::choice_rf_1_3_3_11_F_106| true)
(= |memory_model::choice_rf_2_9_0_50_F_107| true)
(= |memory_model::choice_rf_2_9_1_17_F_108| false)
(= |memory_model::choice_rf_2_9_3_11_F_109| false)
(= |memory_model::choice_rf_2_23_0_50_F_110| false)
(= |memory_model::choice_rf_2_23_1_17_F_111| false)
(= |memory_model::choice_rf_2_23_2_17_F_112| false)
(= |memory_model::choice_rf_2_23_3_11_F_113| true)
(= |memory_model::choice_rf_3_2_0_50_F_114| false)
(= |memory_model::choice_rf_3_2_1_17_F_115| false)
(= |memory_model::choice_rf_3_2_2_17_F_116| true)
(= |memory_model::choice_rf_3_27_0_50_F_117| false)
(= |memory_model::choice_rf_3_27_1_17_F_118| false)
(= |memory_model::choice_rf_3_27_2_17_F_119| false)
(= |memory_model::choice_rf_3_27_3_11_F_120| true)
(= |memory_model::choice_rf_0_78_0_51_F_121| false)
(= |memory_model::choice_rf_0_78_1_10_F_122| true)
(= |memory_model::choice_rf_0_78_2_15_F_123| false)
(= |memory_model::choice_rf_0_78_2_29_F_124| false)
(= |memory_model::choice_rf_0_78_3_18_F_125| false)
(= |memory_model::choice_rf_0_78_3_34_F_126| false)
(= |memory_model::choice_rf_1_6_0_51_F_127| false)
(= |memory_model::choice_rf_1_6_0_82_F_128| false)
(= |memory_model::choice_rf_1_6_2_15_F_129| false)
(= |memory_model::choice_rf_1_6_2_29_F_130| true)
(= |memory_model::choice_rf_1_6_3_18_F_131| false)
(= |memory_model::choice_rf_1_6_3_34_F_132| false)
(= |memory_model::choice_rf_2_8_0_51_F_133| true)
(= |memory_model::choice_rf_2_8_0_82_F_134| false)
(= |memory_model::choice_rf_2_8_1_10_F_135| false)
(= |memory_model::choice_rf_2_8_3_18_F_136| false)
(= |memory_model::choice_rf_2_8_3_34_F_137| false)
(= |memory_model::choice_rf_2_25_0_51_F_138| false)
(= |memory_model::choice_rf_2_25_0_82_F_139| false)
(= |memory_model::choice_rf_2_25_1_10_F_140| false)
(= |memory_model::choice_rf_2_25_2_15_F_141| false)
(= |memory_model::choice_rf_2_25_3_18_F_142| false)
(= |memory_model::choice_rf_2_25_3_34_F_143| true)
(= |memory_model::choice_rf_3_5_0_51_F_144| false)
(= |memory_model::choice_rf_3_5_0_82_F_145| false)
(= |memory_model::choice_rf_3_5_1_10_F_146| false)
(= |memory_model::choice_rf_3_5_2_15_F_147| true)
(= |memory_model::choice_rf_3_5_2_29_F_148| false)
(= |memory_model::choice_rf_3_30_0_51_F_149| false)
(= |memory_model::choice_rf_3_30_0_82_F_150| false)
(= |memory_model::choice_rf_3_30_1_10_F_151| false)
(= |memory_model::choice_rf_3_30_2_15_F_152| false)
(= |memory_model::choice_rf_3_30_2_29_F_153| false)
(= |memory_model::choice_rf_3_30_3_18_F_154| true)
(= |memory_model::choice_rf_0_73_0_52_F_155| false)
(= |memory_model::choice_rf_0_73_1_11_F_156| true)
(= |memory_model::choice_rf_0_73_2_18_F_157| false)
(= |memory_model::choice_rf_0_73_3_17_F_158| false)
(= |memory_model::choice_rf_1_1_0_52_F_159| false)
(= |memory_model::choice_rf_1_1_2_18_F_160| false)
(= |memory_model::choice_rf_1_1_3_17_F_161| true)
(= |memory_model::choice_rf_2_20_0_52_F_162| false)
(= |memory_model::choice_rf_2_20_1_11_F_163| false)
(= |memory_model::choice_rf_2_20_2_18_F_164| false)
(= |memory_model::choice_rf_2_20_3_17_F_165| true)
(= |memory_model::choice_rf_3_0_0_52_F_166| false)
(= |memory_model::choice_rf_3_0_1_11_F_167| false)
(= |memory_model::choice_rf_3_0_2_18_F_168| true)
(= |memory_model::choice_rf_3_25_0_52_F_169| false)
(= |memory_model::choice_rf_3_25_1_11_F_170| false)
(= |memory_model::choice_rf_3_25_2_18_F_171| false)
(= |memory_model::choice_rf_3_25_3_17_F_172| true)
(= |memory_model::choice_rf_0_74_0_53_F_173| false)
(= |memory_model::choice_rf_0_74_1_16_F_174| true)
(= |memory_model::choice_rf_0_74_2_16_F_175| false)
(= |memory_model::choice_rf_0_74_2_28_F_176| false)
(= |memory_model::choice_rf_0_74_3_12_F_177| false)
(= |memory_model::choice_rf_0_74_3_33_F_178| false)
(= |memory_model::choice_rf_1_4_0_53_F_179| false)
(= |memory_model::choice_rf_1_4_0_81_F_180| false)
(= |memory_model::choice_rf_1_4_2_16_F_181| false)
(= |memory_model::choice_rf_1_4_2_28_F_182| true)
(= |memory_model::choice_rf_1_4_3_12_F_183| false)
(= |memory_model::choice_rf_1_4_3_33_F_184| false)
(= |memory_model::choice_rf_2_22_0_53_F_185| false)
(= |memory_model::choice_rf_2_22_0_81_F_186| false)
(= |memory_model::choice_rf_2_22_1_16_F_187| false)
(= |memory_model::choice_rf_2_22_2_16_F_188| false)
(= |memory_model::choice_rf_2_22_3_12_F_189| false)
(= |memory_model::choice_rf_2_22_3_33_F_190| true)
(= |memory_model::choice_rf_3_1_0_53_F_191| false)
(= |memory_model::choice_rf_3_1_0_81_F_192| false)
(= |memory_model::choice_rf_3_1_1_16_F_193| false)
(= |memory_model::choice_rf_3_1_2_16_F_194| true)
(= |memory_model::choice_rf_3_1_2_28_F_195| false)
(= |memory_model::choice_rf_3_26_0_53_F_196| false)
(= |memory_model::choice_rf_3_26_0_81_F_197| false)
(= |memory_model::choice_rf_3_26_1_16_F_198| false)
(= |memory_model::choice_rf_3_26_2_16_F_199| false)
(= |memory_model::choice_rf_3_26_2_28_F_200| false)
(= |memory_model::choice_rf_3_26_3_12_F_201| true)
(= |memory_model::choice_rf_3_22_0_54_F_202| true)
(= |memory_model::choice_rf_3_22_1_0_F_203| false)
(= |memory_model::choice_rf_0_90_0_35_F_204| false)
(= |memory_model::choice_rf_0_90_3_9_F_205| false)
(= |memory_model::choice_rf_0_88_0_2_F_206| true)
(= |memory_model::choice_ws-ext_0_11_1_23_T_207| true)
(= |memory_model::choice_ws-ext_0_11_2_34_T_208| true)
(= |memory_model::choice_ws-ext_0_11_3_39_T_209| true)
(= |memory_model::choice_ws-ext_1_23_2_34_T_210| false)
(= |memory_model::choice_ws-ext_1_23_3_39_T_211| true)
(= |memory_model::choice_ws-ext_2_34_3_39_T_212| true)
(= |memory_model::choice_ws-ext_0_37_1_12_F_213| true)
(= |memory_model::choice_ws-ext_0_37_2_30_F_214| true)
(= |memory_model::choice_ws-ext_0_37_3_16_F_215| true)
(= |memory_model::choice_ws-ext_0_37_3_35_F_216| true)
(= |memory_model::choice_ws-ext_0_83_1_12_F_217| false)
(= |memory_model::choice_ws-ext_0_83_2_30_F_218| false)
(= |memory_model::choice_ws-ext_0_83_3_16_F_219| false)
(= |memory_model::choice_ws-ext_0_83_3_35_F_220| false)
(= |memory_model::choice_ws-ext_1_12_2_30_F_221| false)
(= |memory_model::choice_ws-ext_1_12_3_16_F_222| false)
(= |memory_model::choice_ws-ext_1_12_3_35_F_223| false)
(= |memory_model::choice_ws-ext_2_30_3_16_F_224| false)
(= |memory_model::choice_ws-ext_2_30_3_35_F_225| false)
(= |memory_model::choice_ws-ext_0_12_1_21_F_226| true)
(= |memory_model::choice_ws-ext_0_12_2_32_F_227| true)
(= |memory_model::choice_ws-ext_0_12_3_37_F_228| true)
(= |memory_model::choice_ws-ext_1_21_2_32_F_229| false)
(= |memory_model::choice_ws-ext_1_21_3_37_F_230| false)
(= |memory_model::choice_ws-ext_2_32_3_37_F_231| true)
(= |memory_model::choice_ws-ext_0_13_1_8_F_232| true)
(= |memory_model::choice_ws-ext_0_14_3_7_F_233| true)
(= |memory_model::choice_ws-ext_0_92_3_7_F_234| false)
(= |memory_model::choice_ws-ext_0_25_3_21_F_235| true)
(= |memory_model::choice_ws-ext_0_26_3_15_F_236| true)
(= |memory_model::choice_ws-ext_0_31_3_23_F_237| true)
(= |memory_model::choice_ws-ext_0_38_1_15_F_238| true)
(= |memory_model::choice_ws-ext_0_38_3_13_F_239| true)
(= |memory_model::choice_ws-ext_1_15_3_13_F_240| false)
(= |memory_model::choice_ws-ext_0_39_1_13_F_241| true)
(= |memory_model::choice_ws-ext_0_39_3_14_F_242| true)
(= |memory_model::choice_ws-ext_1_13_3_14_F_243| false)
(= |memory_model::choice_ws-ext_0_41_1_14_F_244| true)
(= |memory_model::choice_ws-ext_0_42_2_10_F_245| true)
(= |memory_model::choice_ws-ext_0_42_2_27_F_246| true)
(= |memory_model::choice_ws-ext_0_43_3_20_F_247| true)
(= |memory_model::choice_ws-ext_0_43_3_32_F_248| true)
(= |memory_model::choice_ws-ext_0_44_2_13_F_249| true)
(= |memory_model::choice_ws-ext_0_79_2_13_F_250| false)
(= |memory_model::choice_ws-ext_0_45_1_9_F_251| true)
(= |memory_model::choice_ws-ext_0_45_2_12_F_252| true)
(= |memory_model::choice_ws-ext_1_9_2_12_F_253| false)
(= |memory_model::choice_ws-ext_0_46_2_11_F_254| true)
(= |memory_model::choice_ws-ext_0_46_2_26_F_255| true)
(= |memory_model::choice_ws-ext_0_47_2_14_F_256| true)
(= |memory_model::choice_ws-ext_0_47_3_19_F_257| true)
(= |memory_model::choice_ws-ext_0_47_3_31_F_258| true)
(= |memory_model::choice_ws-ext_2_14_3_19_F_259| true)
(= |memory_model::choice_ws-ext_2_14_3_31_F_260| true)
(= |memory_model::choice_ws-ext_0_50_1_17_F_261| true)
(= |memory_model::choice_ws-ext_0_50_2_17_F_262| true)
(= |memory_model::choice_ws-ext_0_50_3_11_F_263| true)
(= |memory_model::choice_ws-ext_1_17_2_17_F_264| false)
(= |memory_model::choice_ws-ext_1_17_3_11_F_265| false)
(= |memory_model::choice_ws-ext_2_17_3_11_F_266| true)
(= |memory_model::choice_ws-ext_0_51_1_10_F_267| true)
(= |memory_model::choice_ws-ext_0_51_2_15_F_268| true)
(= |memory_model::choice_ws-ext_0_51_2_29_F_269| true)
(= |memory_model::choice_ws-ext_0_51_3_18_F_270| true)
(= |memory_model::choice_ws-ext_0_51_3_34_F_271| true)
(= |memory_model::choice_ws-ext_0_82_1_10_F_272| false)
(= |memory_model::choice_ws-ext_0_82_2_15_F_273| false)
(= |memory_model::choice_ws-ext_0_82_2_29_F_274| false)
(= |memory_model::choice_ws-ext_0_82_3_18_F_275| false)
(= |memory_model::choice_ws-ext_0_82_3_34_F_276| false)
(= |memory_model::choice_ws-ext_1_10_2_15_F_277| false)
(= |memory_model::choice_ws-ext_1_10_2_29_F_278| false)
(= |memory_model::choice_ws-ext_1_10_3_18_F_279| false)
(= |memory_model::choice_ws-ext_1_10_3_34_F_280| false)
(= |memory_model::choice_ws-ext_2_15_3_18_F_281| true)
(= |memory_model::choice_ws-ext_2_15_3_34_F_282| true)
(= |memory_model::choice_ws-ext_2_29_3_18_F_283| false)
(= |memory_model::choice_ws-ext_2_29_3_34_F_284| false)
(= |memory_model::choice_ws-ext_0_52_1_11_F_285| true)
(= |memory_model::choice_ws-ext_0_52_2_18_F_286| true)
(= |memory_model::choice_ws-ext_0_52_3_17_F_287| true)
(= |memory_model::choice_ws-ext_1_11_2_18_F_288| false)
(= |memory_model::choice_ws-ext_1_11_3_17_F_289| false)
(= |memory_model::choice_ws-ext_2_18_3_17_F_290| true)
(= |memory_model::choice_ws-ext_0_53_1_16_F_291| true)
(= |memory_model::choice_ws-ext_0_53_2_16_F_292| true)
(= |memory_model::choice_ws-ext_0_53_2_28_F_293| true)
(= |memory_model::choice_ws-ext_0_53_3_12_F_294| true)
(= |memory_model::choice_ws-ext_0_53_3_33_F_295| true)
(= |memory_model::choice_ws-ext_0_81_1_16_F_296| false)
(= |memory_model::choice_ws-ext_0_81_2_16_F_297| false)
(= |memory_model::choice_ws-ext_0_81_2_28_F_298| false)
(= |memory_model::choice_ws-ext_0_81_3_12_F_299| false)
(= |memory_model::choice_ws-ext_0_81_3_33_F_300| false)
(= |memory_model::choice_ws-ext_1_16_2_16_F_301| false)
(= |memory_model::choice_ws-ext_1_16_2_28_F_302| false)
(= |memory_model::choice_ws-ext_1_16_3_12_F_303| false)
(= |memory_model::choice_ws-ext_1_16_3_33_F_304| false)
(= |memory_model::choice_ws-ext_2_16_3_12_F_305| true)
(= |memory_model::choice_ws-ext_2_16_3_33_F_306| true)
(= |memory_model::choice_ws-ext_2_28_3_12_F_307| false)
(= |memory_model::choice_ws-ext_2_28_3_33_F_308| false)
(= |memory_model::choice_ws-ext_0_54_1_0_F_309| true)
(= |memory_model::choice_ws-ext_0_34_1_19_F_310| true)
(= |memory_model::choice_ws-ext_0_34_3_8_F_311| true)
(= |memory_model::choice_ws-ext_1_19_3_8_F_312| false)
(= |memory_model::choice_ws-ext_0_35_3_9_F_313| true)
(= |memory_model::choice_ws-ext_0_93_3_9_F_314| false)
(= |memory_model::choice_ws-ext_0_36_1_18_F_315| true)
(= |memory_model::choice_ws-ext_0_36_3_10_F_316| true)
(= |memory_model::choice_ws-ext_1_18_3_10_F_317| false)
(= |main$tmp_guard0#3| #b00000001)
(= |__CPROVER_next_thread_id#3| #b00000000000000000000000000000001)
(= |__CPROVER_next_thread_id#6| #b00000000000000000000000000000010)
(= |__unbuffered_cnt#2| #b00000000000000000000000000000011)
(= |x$w_buff0_used#2| #b00000000)
(= |x$r_buff0_thd0#2| #b00000000)
(= |x$w_buff0#2| #b00000000000000000000000000000001)
(= |x$w_buff1_used#2| #b00000000)
(= |x$r_buff1_thd0#2| #b00000000)
(= |x$w_buff1#2| #b00000000000000000000000000000000)
(= |x#2| #b00000000000000000000000000000000)
(= |x#4| #b00000000000000000000000000000000)
(= |x$w_buff0_used#6| #b00000000)
(= |x$w_buff1_used#6| #b00000000)
(= |x$r_buff0_thd0#8| #b00000000)
(= |x$r_buff1_thd0#7| #b00000000)
(= |weak$$choice1#2| #b00000001)
(= |weak$$choice1#3| #b10000000)
(= |__unbuffered_p2_EAX$read_delayed#2| #b00000001)
(= |__unbuffered_p2_EAX$read_delayed_var$object#1| #b00000000000000000000000000000001)
(= |__unbuffered_p2_EAX#2| #b10000000000000000000000000000000)
(= |__unbuffered_p2_EAX#8| #b00000000000000000000000000000001)
(= |__unbuffered_p0_EAX#2| #b00000000000000000000000000000000)
(= |__unbuffered_p2_EBX#2| #b00000000000000000000000000000000)
(= |main$tmp_guard1#2| #b00000000)
(= |main$tmp_guard1#3| #b10000000)
(= |main$tmp_guard1#6| #b00000000)
(= |pthread_create::1::this_thread_id!1@0#0| #b00100000000000000000000000000000)
(= |x#6| #b00000000000000000000000000000000)
(= |x$w_buff0_used#11| #b00000000)
(= |x$r_buff0_thd1#2| #b00000000)
(= |x$w_buff1_used#9| #b00000000)
(= |x$r_buff1_thd1#2| #b00000000)
(= |x$w_buff0#4| #b00000000000000000000000000000001)
(= |x$w_buff1#4| #b00000000000000000000000000000000)
(= |__unbuffered_cnt#4| #b00000000000000000000000000000010)
(= |pthread_create::1::this_thread_id!2@0#0| #b00000000000000000000000000000000)
(= |x$w_buff0#7| #b00000000000000000000000000000000)
(= |x$w_buff0_used#14| #b00000000)
(= |x$r_buff0_thd0#11| #b00000000)
(= |x$r_buff1_thd0#9| #b00000000)
(= |x$r_buff1_thd0#10| #b00000000)
(= |x$r_buff0_thd1#5| #b00000000)
(= |x$r_buff1_thd1#5| #b00000000)
(= |x$r_buff1_thd1#6| #b00000000)
(= |x$r_buff0_thd2#2| #b00000000)
(= |x$r_buff1_thd2#2| #b00000000)
(= |x$r_buff1_thd2#3| #b00000000)
(= |x$r_buff0_thd3#2| #b00000000)
(= |x$r_buff1_thd3#2| #b00000000)
(= |x$r_buff1_thd3#3| #b10000000)
(= |x$r_buff0_thd2#4| #b00000001)
(= |x$w_buff0_used#17| #b00000000)
(= |x$r_buff0_thd2#6| #b00000001)
(= |x$w_buff0#10| #b00000000000000000000000000000001)
(= |x$w_buff1_used#13| #b00000000)
(= |x$r_buff1_thd2#5| #b00000000)
(= |x$w_buff1#8| #b00000000000000000000000000000000)
(= |x#10| #b00000000000000000000000000000000)
(= |x#12| #b00000000000000000000000000000000)
(= |x$w_buff0_used#21| #b00000000)
(= |x$w_buff1_used#17| #b00000000)
(= |x$r_buff0_thd2#12| #b00000001)
(= |x$r_buff1_thd2#10| #b00000000)
(= |__unbuffered_cnt#7| #b00000000000000000000000000000000)
(= |__unbuffered_cnt#9| #b00000000000000000000000000000001)
(= |pthread_create::1::this_thread_id!3@0#0| #b00100000000000000000000000000000)
(= |x#14| #b00000000000000000000000000000000)
(= |x$w_buff0_used#26| #b00000001)
(= |x$r_buff0_thd3#4| #b00000000)
(= |x$w_buff0#12| #b00000000000000000000000000000001)
(= |x$r_buff1_thd3#5| #b00000000)
(= |x$w_buff1_used#20| #b00000000)
(= |x$w_buff1#10| #b00000000000000000000000000000000)
(= |y#3| #b00000000000000000000000000000000)
(= |x$w_buff0_used#29| #b00000000)
(= |x$r_buff0_thd3#7| #b00000000)
(= |x$w_buff0#15| #b00000000000000000000000000000001)
(= |x$w_buff1_used#23| #b00000000)
(= |x$r_buff1_thd3#8| #b00000000)
(= |x$w_buff1#13| #b00000000000000000000000000000000)
(= |x#18| #b00000000000000000000000000000000)
(= |__unbuffered_cnt#11| #b00000000000000000000000000000001)
(= |__CPROVER_threads_exited#1$wclk$8| #b00001101)
(= |__CPROVER_threads_exited#2$rclk$8| #b11111010)
(= |__CPROVER_threads_exited#5$wclk$8| #b11101111)
(= |__CPROVER_threads_exited#7$wclk$8| #b11111111)
(= |__CPROVER_threads_exited#4$rclk$8| #b11101110)
(= |__CPROVER_threads_exited#3$wclk$8| #b11111011)
(= |__CPROVER_threads_exited#6$rclk$8| #b11111110)
(= |x#9$wclk$8| #b11110011)
(= |x#2$rclk$8| #b11111100)
(= |x#13$wclk$8| #b11101001)
(= |x#17$wclk$8| #b01111010)
(= |x#20$wclk$8| #b01111101)
(= |x#1$wclk$8| #b00101000)
(= |x#6$rclk$8| #b11110011)
(= |x#5$wclk$8| #b11111100)
(= |x#10$rclk$8| #b11101001)
(= |x#14$rclk$8| #b01111010)
(= |x#18$rclk$8| #b01111101)
(= |__unbuffered_cnt#6$wclk$8| #b11110110)
(= |__unbuffered_cnt#2$rclk$8| #b11111001)
(= |__unbuffered_cnt#10$wclk$8| #b11101011)
(= |__unbuffered_cnt#13$wclk$8| #b11110101)
(= |__unbuffered_cnt#1$wclk$8| #b00001110)
(= |__unbuffered_cnt#4$rclk$8| #b11110110)
(= |__unbuffered_cnt#7$rclk$8| #b11101011)
(= |__unbuffered_cnt#11$rclk$8| #b11110101)
(= |__unbuffered_p0_EAX#4$wclk$8| #b11110011)
(= |__unbuffered_p0_EAX#2$rclk$8| #b11111101)
(= |__unbuffered_p2_EAX#11$wclk$8| #b01111010)
(= |__unbuffered_p2_EAX#2$rclk$8| #b11111101)
(= |__unbuffered_p2_EAX$read_delayed#4$wclk$8| #b01111010)
(= |__unbuffered_p2_EAX$read_delayed#2$rclk$8| #b11111101)
(= |__unbuffered_p2_EBX#4$wclk$8| #b01111011)
(= |__unbuffered_p2_EBX#2$rclk$8| #b11111101)
(= |main$tmp_guard1#5| #b00000000)
(= |x$r_buff0_thd0#1$wclk$8| #b00101100)
(= |x$r_buff0_thd0#11$rclk$8| #b01011000)
(= |x$r_buff0_thd0#10$wclk$8| #b11111100)
(= |x$r_buff0_thd1#1$wclk$8| #b00101101)
(= |x$r_buff0_thd1#2$rclk$8| #b11110011)
(= |x$r_buff0_thd1#5$rclk$8| #b01011000)
(= |x$r_buff0_thd1#4$wclk$8| #b11110011)
(= |x$r_buff0_thd2#1$wclk$8| #b00101110)
(= |x$r_buff0_thd2#2$rclk$8| #b01011000)
(= |x$r_buff0_thd2#6$rclk$8| #b11101001)
(= |x$r_buff0_thd3#1$wclk$8| #b00101111)
(= |x$r_buff0_thd3#2$rclk$8| #b01011000)
(= |x$r_buff0_thd3#6$wclk$8| #b01111010)
(= |x$r_buff0_thd3#9$wclk$8| #b01111101)
(= |x$r_buff0_thd3#4$rclk$8| #b01111010)
(= |x$r_buff0_thd3#7$rclk$8| #b01111101)
(= |x$r_buff1_thd0#11$wclk$8| #b01011000)
(= |x$r_buff1_thd0#2$rclk$8| #b11111100)
(= |x$r_buff1_thd0#1$wclk$8| #b00110000)
(= |x$r_buff1_thd0#10$rclk$8| #b01011000)
(= |x$r_buff1_thd0#8$wclk$8| #b11111100)
(= |x$r_buff1_thd1#1$wclk$8| #b00110001)
(= |x$r_buff1_thd1#2$rclk$8| #b11110011)
(= |x$r_buff1_thd1#7$wclk$8| #b01011000)
(= |x$r_buff1_thd1#6$rclk$8| #b01011000)
(= |x$r_buff1_thd1#4$wclk$8| #b11110011)
(= |x$r_buff1_thd2#1$wclk$8| #b00110010)
(= |x$r_buff1_thd2#3$rclk$8| #b01011000)
(= |x$r_buff1_thd2#5$rclk$8| #b11101001)
(= |x$r_buff1_thd3#1$wclk$8| #b00110011)
(= |x$r_buff1_thd3#3$rclk$8| #b01011000)
(= |x$r_buff1_thd3#7$wclk$8| #b01111010)
(= |x$r_buff1_thd3#10$wclk$8| #b01111101)
(= |x$r_buff1_thd3#5$rclk$8| #b01111010)
(= |x$r_buff1_thd3#4$wclk$8| #b01011000)
(= |x$r_buff1_thd3#8$rclk$8| #b01111101)
(= |x$w_buff0#6$wclk$8| #b11110011)
(= |x$w_buff0#2$rclk$8| #b11111100)
(= |x$w_buff0#9$wclk$8| #b01011000)
(= |x$w_buff0#14$wclk$8| #b01111010)
(= |x$w_buff0#1$wclk$8| #b00111100)
(= |x$w_buff0#4$rclk$8| #b11110011)
(= |x$w_buff0#7$rclk$8| #b01011000)
(= |x$w_buff0#10$rclk$8| #b11101001)
(= |x$w_buff0#12$rclk$8| #b01111010)
(= |x$w_buff0#15$rclk$8| #b01111101)
(= |x$w_buff0_used#13$wclk$8| #b11110011)
(= |x$w_buff0_used#2$rclk$8| #b11111100)
(= |x$w_buff0_used#16$wclk$8| #b01011000)
(= |x$w_buff0_used#25$wclk$8| #b11101001)
(= |x$w_buff0_used#28$wclk$8| #b01111010)
(= |x$w_buff0_used#31$wclk$8| #b01111101)
(= |x$w_buff0_used#1$wclk$8| #b01000101)
(= |x$w_buff0_used#11$rclk$8| #b11110011)
(= |x$w_buff0_used#10$wclk$8| #b11111100)
(= |x$w_buff0_used#14$rclk$8| #b01011000)
(= |x$w_buff0_used#17$rclk$8| #b11101001)
(= |x$w_buff0_used#26$rclk$8| #b01111010)
(= |x$w_buff0_used#29$rclk$8| #b01111101)
(= |x$w_buff1#6$wclk$8| #b11110011)
(= |x$w_buff1#2$rclk$8| #b11111100)
(= |x$w_buff1#7$wclk$8| #b01011000)
(= |x$w_buff1#12$wclk$8| #b01111010)
(= |x$w_buff1#1$wclk$8| #b01000110)
(= |x$w_buff1#4$rclk$8| #b11110011)
(= |x$w_buff1#8$rclk$8| #b11101001)
(= |x$w_buff1#10$rclk$8| #b01111010)
(= |x$w_buff1#13$rclk$8| #b01111101)
(= |x$w_buff1_used#11$wclk$8| #b11110011)
(= |x$w_buff1_used#2$rclk$8| #b11111100)
(= |x$w_buff1_used#12$wclk$8| #b01011000)
(= |x$w_buff1_used#19$wclk$8| #b11101001)
(= |x$w_buff1_used#22$wclk$8| #b01111010)
(= |x$w_buff1_used#25$wclk$8| #b01111101)
(= |x$w_buff1_used#1$wclk$8| #b01000111)
(= |x$w_buff1_used#9$rclk$8| #b11110011)
(= |x$w_buff1_used#8$wclk$8| #b11111100)
(= |x$w_buff1_used#13$rclk$8| #b11101001)
(= |x$w_buff1_used#20$rclk$8| #b01111010)
(= |x$w_buff1_used#23$rclk$8| #b01111101)
(= |y#1$wclk$8| #b01001000)
(= |y#3$rclk$8| #b01111011)
(= |y#2$wclk$8| #b11010010)
(= |weak$$choice1#8$wclk$8| #b01111010)
(= |weak$$choice1#3$rclk$8| #b11111101)
(= __unbuffered_p2_EAX$read_delayed_var$object #b00000000000000000000000000000001)
(= |__unbuffered_p0_EAX#1$wclk$8| #b00001111)
(= |__unbuffered_p2_EAX#1$wclk$8| #b00010000)
(= |__unbuffered_p2_EAX#10$wclk$8| #b11111101)
(= |__unbuffered_p2_EAX$read_delayed#1$wclk$8| #b00011011)
(= |__unbuffered_p2_EAX$read_delayed_var#1$wclk$8| #b00011100)
(= |__unbuffered_p2_EAX$read_delayed_var#2$wclk$8| #b01111010)
(= |__unbuffered_p2_EBX#1$wclk$8| #b00100010)
(= |x$flush_delayed#1$wclk$8| #b00101010)
(= |x$flush_delayed#3$wclk$8| #b11110011)
(= |x$flush_delayed#5$wclk$8| #b01111010)
(= |x$mem_tmp#1$wclk$8| #b00101011)
(= |x$mem_tmp#2$wclk$8| #b11110011)
(= |x$mem_tmp#3$wclk$8| #b01111010)
(= |x$r_buff0_thd2#5$wclk$8| #b01011000)
(= |x$r_buff0_thd2#14$wclk$8| #b11101001)
(= |x$r_buff1_thd2#4$wclk$8| #b01011000)
(= |x$r_buff1_thd2#11$wclk$8| #b11101001)
(= |weak$$choice0#1$wclk$8| #b00100101)
(= |weak$$choice0#2$wclk$8| #b11110011)
(= |weak$$choice0#3$wclk$8| #b01111010)
(= |weak$$choice1#1$wclk$8| #b00100110)
(= |weak$$choice1#7$wclk$8| #b11111101)
(= |weak$$choice2#1$wclk$8| #b00100111)
(= |weak$$choice2#2$wclk$8| #b11110011)
(= |weak$$choice2#3$wclk$8| #b01111010)
(= t1$58$spwnclk$8 #b01010001)
(= t1$63$spwnclk$8 #b01010101)
(= t1$68$spwnclk$8 #b01101001)
(= |main::1::t2452!0@1$wclk$8| #b00000000)
(= |main::1::t2453!0@1$wclk$8| #b00000001)
(= __unbuffered_p2_EAX$read_delayed_var$object$wclk$8 #b00000010)
(= |__CPROVER_dead_object#1$wclk$8| #b00000011)
(= |__CPROVER_deallocated#1$wclk$8| #b00000100)
(= |__CPROVER_malloc_is_new_array#1$wclk$8| #b00000101)
(= |__CPROVER_malloc_object#1$wclk$8| #b00000111)
(= |__CPROVER_malloc_size#1$wclk$8| #b00001000)
(= |__CPROVER_memory_leak#1$wclk$8| #b00001001)
(= |__CPROVER_next_thread_id#1$wclk$8| #b00001010)
(= |__CPROVER_pipe_count#1$wclk$8| #b00001011)
(= |__unbuffered_p2_EAX$flush_delayed#1$wclk$8| #b00010001)
(= |__unbuffered_p2_EAX$mem_tmp#1$wclk$8| #b00010010)
(= |__unbuffered_p2_EAX$r_buff0_thd0#1$wclk$8| #b00010011)
(= |__unbuffered_p2_EAX$r_buff0_thd1#1$wclk$8| #b00010100)
(= |__unbuffered_p2_EAX$r_buff0_thd2#1$wclk$8| #b00010101)
(= |__unbuffered_p2_EAX$r_buff0_thd3#1$wclk$8| #b00010110)
(= |__unbuffered_p2_EAX$r_buff1_thd0#1$wclk$8| #b00010111)
(= |__unbuffered_p2_EAX$r_buff1_thd1#1$wclk$8| #b00011000)
(= |__unbuffered_p2_EAX$r_buff1_thd2#1$wclk$8| #b00011001)
(= |__unbuffered_p2_EAX$r_buff1_thd3#1$wclk$8| #b00011010)
(= |__unbuffered_p2_EAX$w_buff0#1$wclk$8| #b00011101)
(= |__unbuffered_p2_EAX$w_buff0_used#1$wclk$8| #b00011110)
(= |__unbuffered_p2_EAX$w_buff1#1$wclk$8| #b00011111)
(= |__unbuffered_p2_EAX$w_buff1_used#1$wclk$8| #b00100000)
(= |main$tmp_guard0#1$wclk$8| #b00100011)
(= |main$tmp_guard1#1$wclk$8| #b00100100)
(= |x$read_delayed#1$wclk$8| #b00110110)
(= |x$read_delayed_var#1$wclk$8| #b00111011)
(= |main::1::t2451!0@1#1$wclk$8| #b01001001)
(= |__CPROVER_next_thread_id#2$wclk$8| #b01001010)
(= |main::1::t2451!0@1#2$wclk$8| #b01010000)
(= |main::1::t2452!0@1#1$wclk$8| #b01010010)
(= |__CPROVER_next_thread_id#3$rclk$8| #b01010011)
(= |__CPROVER_next_thread_id#5$wclk$8| #b01010011)
(= |main::1::t2452!0@1#2$wclk$8| #b01010100)
(= |main::1::t2453!0@1#1$wclk$8| #b01100110)
(= |__CPROVER_next_thread_id#6$rclk$8| #b01100111)
(= |__CPROVER_next_thread_id#8$wclk$8| #b01100111)
(= |main::1::t2453!0@1#2$wclk$8| #b01101000)
(= |main$tmp_guard0#2$wclk$8| #b11111001)
(= |main$tmp_guard0#3$rclk$8| #b11111011)
(= |x$r_buff0_thd0#2$rclk$8| #b11111100)
(= |main$tmp_guard1#3$rclk$8| #b11111101)
(= |__unbuffered_p2_EAX$read_delayed_var$object#1$rclk$8| #b11111101)
(= |main$tmp_guard1#4$wclk$8| #b11111101)
(= |main$tmp_guard1#5$rclk$8| #b11111110)
(= |main$tmp_guard1#6$rclk$8| #b11111111)
(= array_of.0 @fun_6)
(= |__CPROVER_threads_exited#2| @fun_6)
(= |__CPROVER_threads_exited#4| @fun_6)
(= |__CPROVER_threads_exited#6| @fun_6)
(function @fun_6
 (type (Array (_ BitVec 32) (_ BitVec 1)))
 (default #b1))

real	0m0.031s
user	0m0.028s
sys	0m0.004s
State: AC Run_time: 0.033399105072021484